# Node Net
780   1
3544   1
1740   1
2461   2
1261   2
3597   2
3584   3
3576   3
3571   3
420   4
3555   4
660   4
 26   5
3545   5
  7   5
3550   6
2641   6
 40   6
2701   7
2640   7
2100   7
1860   8
3120   8
 38   8
3300   9
3420   9
3587  10
 35  10
